nN = 8;
nR = 24;
nH = 1;

a = [[15, 18, 18, 21, 25, 19, 17, 23, 18, 25, 24, 19, 20, 19, 16, 20, 23, 19, 23, 23, 20, 22, 24, 19], [16, 15, 19, 15, 16, 18, 16, 19, 20, 24, 21, 25, 24, 17, 24, 16, 16, 19, 18, 19, 22, 22, 21, 16], [17, 22, 24, 19, 21, 23, 23, 20, 16, 23, 20, 18, 18, 23, 21, 23, 16, 15, 23, 23, 22, 22, 19, 16], [17, 19, 15, 16, 16, 22, 15, 21, 18, 20, 15, 15, 17, 24, 16, 15, 16, 24, 19, 15, 17, 15, 19, 23], [15, 21, 25, 22, 16, 18, 23, 20, 18, 18, 17, 16, 16, 23, 21, 19, 18, 21, 20, 17, 25, 23, 16, 25], [22, 16, 15, 20, 25, 15, 18, 17, 23, 17, 15, 16, 18, 25, 23, 25, 25, 18, 16, 22, 16, 16, 25, 16], [17, 16, 21, 15, 19, 24, 16, 24, 16, 25, 17, 22, 21, 20, 18, 23, 16, 17, 16, 15, 18, 24, 19, 15], [16, 16, 18, 20, 23, 15, 25, 17, 20, 18, 25, 17, 22, 21, 15, 19, 16, 20, 24, 24, 19, 25, 15, 19]];
c = [[[0, 0, 0, 0, 0, 0, 0, 0, 0, 0, 0, 0, 0, 0, 0, 0, 0, 0, 0, 0, 0, 0, 0, 0], [41, 31, 44, 33, 47, 33, 34, 47, 43, 32, 45, 43, 46, 43, 39, 45, 50, 49, 39, 44, 44, 44, 43, 35], [48, 31, 38, 35, 39, 31, 40, 30, 41, 35, 40, 34, 41, 42, 30, 50, 48, 48, 45, 37, 48, 45, 37, 46], [41, 32, 41, 36, 47, 33, 42, 33, 42, 30, 47, 47, 34, 41, 47, 35, 31, 37, 45, 46, 45, 44, 39, 40], [46, 34, 36, 32, 41, 34, 38, 35, 30, 45, 46, 39, 49, 34, 31, 36, 50, 46, 48, 44, 30, 33, 42, 36], [42, 31, 48, 46, 44, 30, 32, 47, 46, 42, 44, 47, 34, 34, 33, 38, 38, 38, 43, 34, 48, 33, 47, 42], [44, 34, 45, 32, 42, 40, 32, 30, 32, 46, 46, 42, 46, 38, 39, 34, 48, 40, 33, 36, 30, 47, 30, 36], [43, 46, 48, 31, 35, 49, 47, 40, 33, 31, 36, 40, 37, 47, 44, 39, 40, 38, 50, 31, 48, 50, 32, 30]], [[0, 0, 0, 0, 0, 0, 0, 0, 0, 0, 0, 0, 0, 0, 0, 0, 0, 0, 0, 0, 0, 0, 0, 0], [0, 0, 0, 0, 0, 0, 0, 0, 0, 0, 0, 0, 0, 0, 0, 0, 0, 0, 0, 0, 0, 0, 0, 0], [34, 42, 43, 39, 39, 46, 38, 50, 46, 44, 48, 47, 43, 34, 49, 47, 33, 37, 41, 31, 41, 43, 30, 49], [47, 33, 47, 43, 39, 45, 45, 42, 42, 38, 49, 32, 35, 40, 45, 34, 31, 48, 46, 45, 49, 30, 48, 49], [33, 42, 32, 35, 48, 47, 30, 46, 35, 35, 38, 43, 42, 32, 39, 32, 33, 43, 44, 33, 35, 46, 30, 45], [48, 37, 49, 45, 47, 48, 47, 46, 49, 30, 49, 46, 35, 40, 44, 35, 46, 46, 49, 41, 50, 40, 31, 31], [30, 50, 37, 34, 45, 35, 43, 42, 41, 37, 32, 41, 45, 46, 35, 44, 46, 50, 47, 34, 33, 41, 31, 34], [44, 42, 37, 42, 39, 36, 47, 32, 33, 42, 38, 33, 37, 46, 37, 33, 45, 48, 33, 31, 40, 32, 37, 38]], [[0, 0, 0, 0, 0, 0, 0, 0, 0, 0, 0, 0, 0, 0, 0, 0, 0, 0, 0, 0, 0, 0, 0, 0], [0, 0, 0, 0, 0, 0, 0, 0, 0, 0, 0, 0, 0, 0, 0, 0, 0, 0, 0, 0, 0, 0, 0, 0], [0, 0, 0, 0, 0, 0, 0, 0, 0, 0, 0, 0, 0, 0, 0, 0, 0, 0, 0, 0, 0, 0, 0, 0], [39, 33, 43, 47, 49, 37, 32, 40, 48, 31, 42, 32, 44, 49, 46, 33, 37, 43, 32, 33, 31, 47, 41, 50], [48, 43, 42, 43, 45, 40, 40, 40, 50, 38, 32, 46, 46, 36, 30, 41, 38, 34, 42, 33, 30, 47, 32, 41], [35, 44, 34, 48, 35, 42, 39, 38, 49, 42, 35, 30, 39, 33, 46, 46, 34, 38, 36, 37, 43, 43, 32, 35], [33, 30, 38, 48, 40, 38, 30, 35, 44, 37, 47, 45, 42, 45, 41, 49, 50, 45, 41, 38, 50, 45, 41, 46], [47, 38, 37, 35, 50, 40, 40, 47, 48, 31, 33, 35, 48, 33, 46, 37, 42, 47, 50, 40, 36, 40, 31, 35]], [[0, 0, 0, 0, 0, 0, 0, 0, 0, 0, 0, 0, 0, 0, 0, 0, 0, 0, 0, 0, 0, 0, 0, 0], [0, 0, 0, 0, 0, 0, 0, 0, 0, 0, 0, 0, 0, 0, 0, 0, 0, 0, 0, 0, 0, 0, 0, 0], [0, 0, 0, 0, 0, 0, 0, 0, 0, 0, 0, 0, 0, 0, 0, 0, 0, 0, 0, 0, 0, 0, 0, 0], [0, 0, 0, 0, 0, 0, 0, 0, 0, 0, 0, 0, 0, 0, 0, 0, 0, 0, 0, 0, 0, 0, 0, 0], [35, 49, 40, 48, 49, 40, 32, 49, 36, 36, 34, 35, 40, 43, 49, 37, 36, 48, 40, 31, 50, 31, 45, 43], [46, 39, 46, 35, 39, 39, 48, 48, 31, 50, 41, 39, 45, 31, 35, 32, 42, 44, 38, 49, 40, 40, 36, 33], [43, 38, 49, 44, 39, 46, 46, 39, 38, 35, 50, 45, 39, 49, 50, 42, 38, 34, 45, 36, 35, 48, 37, 50], [38, 48, 35, 47, 38, 34, 36, 38, 38, 31, 42, 37, 40, 32, 32, 48, 44, 30, 48, 37, 42, 47, 38, 35]], [[0, 0, 0, 0, 0, 0, 0, 0, 0, 0, 0, 0, 0, 0, 0, 0, 0, 0, 0, 0, 0, 0, 0, 0], [0, 0, 0, 0, 0, 0, 0, 0, 0, 0, 0, 0, 0, 0, 0, 0, 0, 0, 0, 0, 0, 0, 0, 0], [0, 0, 0, 0, 0, 0, 0, 0, 0, 0, 0, 0, 0, 0, 0, 0, 0, 0, 0, 0, 0, 0, 0, 0], [0, 0, 0, 0, 0, 0, 0, 0, 0, 0, 0, 0, 0, 0, 0, 0, 0, 0, 0, 0, 0, 0, 0, 0], [0, 0, 0, 0, 0, 0, 0, 0, 0, 0, 0, 0, 0, 0, 0, 0, 0, 0, 0, 0, 0, 0, 0, 0], [45, 35, 49, 33, 46, 42, 48, 41, 41, 32, 44, 32, 49, 50, 36, 42, 40, 31, 45, 40, 45, 47, 41, 47], [46, 41, 34, 47, 47, 37, 36, 49, 49, 39, 32, 36, 40, 50, 43, 50, 30, 42, 50, 41, 31, 48, 40, 48], [39, 36, 41, 33, 42, 33, 48, 36, 50, 39, 31, 30, 43, 40, 39, 36, 45, 31, 32, 40, 32, 47, 37, 32]], [[0, 0, 0, 0, 0, 0, 0, 0, 0, 0, 0, 0, 0, 0, 0, 0, 0, 0, 0, 0, 0, 0, 0, 0], [0, 0, 0, 0, 0, 0, 0, 0, 0, 0, 0, 0, 0, 0, 0, 0, 0, 0, 0, 0, 0, 0, 0, 0], [0, 0, 0, 0, 0, 0, 0, 0, 0, 0, 0, 0, 0, 0, 0, 0, 0, 0, 0, 0, 0, 0, 0, 0], [0, 0, 0, 0, 0, 0, 0, 0, 0, 0, 0, 0, 0, 0, 0, 0, 0, 0, 0, 0, 0, 0, 0, 0], [0, 0, 0, 0, 0, 0, 0, 0, 0, 0, 0, 0, 0, 0, 0, 0, 0, 0, 0, 0, 0, 0, 0, 0], [0, 0, 0, 0, 0, 0, 0, 0, 0, 0, 0, 0, 0, 0, 0, 0, 0, 0, 0, 0, 0, 0, 0, 0], [43, 37, 44, 44, 42, 50, 40, 34, 48, 38, 36, 41, 34, 46, 34, 34, 30, 47, 40, 36, 34, 37, 34, 36], [47, 33, 49, 32, 49, 30, 39, 47, 50, 33, 35, 37, 49, 40, 42, 50, 41, 42, 41, 49, 40, 37, 45, 47]], [[0, 0, 0, 0, 0, 0, 0, 0, 0, 0, 0, 0, 0, 0, 0, 0, 0, 0, 0, 0, 0, 0, 0, 0], [0, 0, 0, 0, 0, 0, 0, 0, 0, 0, 0, 0, 0, 0, 0, 0, 0, 0, 0, 0, 0, 0, 0, 0], [0, 0, 0, 0, 0, 0, 0, 0, 0, 0, 0, 0, 0, 0, 0, 0, 0, 0, 0, 0, 0, 0, 0, 0], [0, 0, 0, 0, 0, 0, 0, 0, 0, 0, 0, 0, 0, 0, 0, 0, 0, 0, 0, 0, 0, 0, 0, 0], [0, 0, 0, 0, 0, 0, 0, 0, 0, 0, 0, 0, 0, 0, 0, 0, 0, 0, 0, 0, 0, 0, 0, 0], [0, 0, 0, 0, 0, 0, 0, 0, 0, 0, 0, 0, 0, 0, 0, 0, 0, 0, 0, 0, 0, 0, 0, 0], [0, 0, 0, 0, 0, 0, 0, 0, 0, 0, 0, 0, 0, 0, 0, 0, 0, 0, 0, 0, 0, 0, 0, 0], [40, 49, 33, 45, 49, 41, 41, 45, 50, 40, 40, 48, 37, 50, 50, 36, 30, 48, 50, 39, 49, 50, 42, 42]], [[0, 0, 0, 0, 0, 0, 0, 0, 0, 0, 0, 0, 0, 0, 0, 0, 0, 0, 0, 0, 0, 0, 0, 0], [0, 0, 0, 0, 0, 0, 0, 0, 0, 0, 0, 0, 0, 0, 0, 0, 0, 0, 0, 0, 0, 0, 0, 0], [0, 0, 0, 0, 0, 0, 0, 0, 0, 0, 0, 0, 0, 0, 0, 0, 0, 0, 0, 0, 0, 0, 0, 0], [0, 0, 0, 0, 0, 0, 0, 0, 0, 0, 0, 0, 0, 0, 0, 0, 0, 0, 0, 0, 0, 0, 0, 0], [0, 0, 0, 0, 0, 0, 0, 0, 0, 0, 0, 0, 0, 0, 0, 0, 0, 0, 0, 0, 0, 0, 0, 0], [0, 0, 0, 0, 0, 0, 0, 0, 0, 0, 0, 0, 0, 0, 0, 0, 0, 0, 0, 0, 0, 0, 0, 0], [0, 0, 0, 0, 0, 0, 0, 0, 0, 0, 0, 0, 0, 0, 0, 0, 0, 0, 0, 0, 0, 0, 0, 0], [0, 0, 0, 0, 0, 0, 0, 0, 0, 0, 0, 0, 0, 0, 0, 0, 0, 0, 0, 0, 0, 0, 0, 0]]];

q = [[[8], [24], [13], [22], [19], [11], [23], [22], [6], [12], [6], [7], [13], [22], [14], [25], [10], [17], [17], [12], [24], [8], [23], [18]], [[9], [16], [20], [24], [8], [20], [13], [15], [25], [19], [25], [20], [21], [6], [17], [25], [13], [21], [23], [8], [8], [5], [21], [18]], [[13], [23], [19], [13], [21], [12], [19], [8], [25], [21], [24], [8], [23], [25], [7], [15], [6], [12], [20], [15], [7], [13], [18], [20]], [[17], [9], [22], [6], [16], [6], [9], [17], [24], [18], [13], [15], [19], [18], [14], [17], [25], [7], [15], [5], [19], [10], [14], [24]], [[16], [5], [7], [7], [24], [19], [5], [23], [24], [22], [25], [17], [10], [23], [18], [9], [24], [25], [5], [23], [22], [18], [14], [9]], [[20], [14], [13], [22], [15], [6], [21], [16], [10], [8], [16], [5], [19], [6], [12], [18], [7], [7], [10], [22], [24], [16], [9], [10]], [[19], [21], [22], [23], [20], [10], [15], [19], [12], [8], [14], [7], [25], [15], [10], [25], [9], [25], [17], [8], [9], [17], [12], [20]], [[8], [21], [12], [18], [23], [7], [10], [9], [19], [9], [23], [18], [18], [25], [23], [21], [23], [8], [18], [17], [8], [10], [20], [7]]];
Q = [[37], [40], [38], [35], [39], [32], [38], [37]];
